c colouring generated by benchmark framework
p edge 561 1628
v 1 3
v 2 5
v 3 0
v 4 1
v 5 0
v 6 0
v 7 0
v 8 1
v 9 1
v 10 2
v 11 2
v 12 0
v 13 0
v 14 0
v 15 3
v 16 0
v 17 2
v 18 0
v 19 1
v 20 0
v 21 0
v 22 0
v 23 0
v 24 1
v 25 0
v 26 0
v 27 0
v 28 1
v 29 1
v 30 1
v 31 0
v 32 2
v 33 0
v 34 8
v 35 4
v 36 1
v 37 0
v 38 1
v 39 1
v 40 2
v 41 0
v 42 4
v 43 0
v 44 8
v 45 0
v 46 6
v 47 0
v 48 0
v 49 4
v 50 4
v 51 1
v 52 1
v 53 6
v 54 0
v 55 0
v 56 0
v 57 1
v 58 1
v 59 0
v 60 2
v 61 5
v 62 2
v 63 0
v 64 3
v 65 0
v 66 3
v 67 2
v 68 2
v 69 6
v 70 0
v 71 1
v 72 1
v 73 0
v 74 2
v 75 0
v 76 3
v 77 1
v 78 5
v 79 0
v 80 0
v 81 0
v 82 1
v 83 1
v 84 1
v 85 2
v 86 1
v 87 0
v 88 2
v 89 0
v 90 0
v 91 0
v 92 0
v 93 0
v 94 0
v 95 4
v 96 2
v 97 1
v 98 1
v 99 0
v 100 0
v 101 0
v 102 0
v 103 0
v 104 0
v 105 0
v 106 0
v 107 0
v 108 2
v 109 0
v 110 0
v 111 0
v 112 0
v 113 0
v 114 8
v 115 3
v 116 0
v 117 5
v 118 0
v 119 5
v 120 0
v 121 0
v 122 0
v 123 6
v 124 0
v 125 0
v 126 0
v 127 0
v 128 0
v 129 0
v 130 0
v 131 0
v 132 0
v 133 0
v 134 0
v 135 8
v 136 0
v 137 2
v 138 0
v 139 1
v 140 1
v 141 0
v 142 1
v 143 1
v 144 0
v 145 0
v 146 2
v 147 1
v 148 1
v 149 1
v 150 3
v 151 0
v 152 1
v 153 0
v 154 7
v 155 5
v 156 0
v 157 0
v 158 1
v 159 2
v 160 5
v 161 3
v 162 1
v 163 1
v 164 6
v 165 6
v 166 0
v 167 0
v 168 2
v 169 1
v 170 3
v 171 9
v 172 1
v 173 0
v 174 1
v 175 1
v 176 0
v 177 1
v 178 7
v 179 1
v 180 0
v 181 1
v 182 1
v 183 2
v 184 0
v 185 1
v 186 2
v 187 1
v 188 2
v 189 9
v 190 0
v 191 0
v 192 1
v 193 0
v 194 2
v 195 0
v 196 2
v 197 1
v 198 0
v 199 1
v 200 0
v 201 0
v 202 3
v 203 3
v 204 3
v 205 0
v 206 0
v 207 0
v 208 0
v 209 0
v 210 0
v 211 1
v 212 1
v 213 0
v 214 0
v 215 1
v 216 0
v 217 0
v 218 3
v 219 6
v 220 0
v 221 0
v 222 3
v 223 0
v 224 0
v 225 0
v 226 0
v 227 2
v 228 0
v 229 0
v 230 0
v 231 1
v 232 0
v 233 0
v 234 2
v 235 0
v 236 0
v 237 0
v 238 0
v 239 2
v 240 3
v 241 0
v 242 0
v 243 0
v 244 1
v 245 0
v 246 3
v 247 4
v 248 0
v 249 1
v 250 0
v 251 1
v 252 0
v 253 2
v 254 0
v 255 2
v 256 0
v 257 0
v 258 0
v 259 4
v 260 2
v 261 0
v 262 1
v 263 0
v 264 2
v 265 0
v 266 0
v 267 2
v 268 1
v 269 0
v 270 0
v 271 0
v 272 1
v 273 0
v 274 3
v 275 0
v 276 0
v 277 5
v 278 0
v 279 0
v 280 2
v 281 1
v 282 0
v 283 0
v 284 0
v 285 2
v 286 1
v 287 0
v 288 0
v 289 0
v 290 0
v 291 2
v 292 3
v 293 0
v 294 0
v 295 1
v 296 0
v 297 7
v 298 0
v 299 0
v 300 0
v 301 0
v 302 0
v 303 1
v 304 0
v 305 0
v 306 0
v 307 0
v 308 1
v 309 0
v 310 0
v 311 0
v 312 1
v 313 2
v 314 10
v 315 1
v 316 2
v 317 3
v 318 0
v 319 0
v 320 2
v 321 1
v 322 0
v 323 0
v 324 0
v 325 0
v 326 0
v 327 1
v 328 0
v 329 0
v 330 2
v 331 1
v 332 2
v 333 0
v 334 0
v 335 9
v 336 8
v 337 0
v 338 0
v 339 1
v 340 1
v 341 0
v 342 0
v 343 0
v 344 0
v 345 4
v 346 0
v 347 2
v 348 6
v 349 7
v 350 1
v 351 0
v 352 0
v 353 11
v 354 1
v 355 0
v 356 2
v 357 4
v 358 1
v 359 1
v 360 0
v 361 1
v 362 1
v 363 3
v 364 0
v 365 2
v 366 0
v 367 4
v 368 5
v 369 7
v 370 0
v 371 1
v 372 1
v 373 0
v 374 1
v 375 0
v 376 0
v 377 0
v 378 3
v 379 0
v 380 7
v 381 12
v 382 0
v 383 0
v 384 2
v 385 2
v 386 1
v 387 6
v 388 0
v 389 0
v 390 1
v 391 4
v 392 2
v 393 1
v 394 1
v 395 0
v 396 2
v 397 4
v 398 0
v 399 0
v 400 9
v 401 0
v 402 0
v 403 0
v 404 0
v 405 1
v 406 0
v 407 1
v 408 8
v 409 0
v 410 7
v 411 2
v 412 0
v 413 1
v 414 0
v 415 4
v 416 5
v 417 0
v 418 1
v 419 1
v 420 0
v 421 0
v 422 4
v 423 0
v 424 2
v 425 7
v 426 4
v 427 2
v 428 1
v 429 1
v 430 0
v 431 0
v 432 0
v 433 4
v 434 0
v 435 0
v 436 0
v 437 0
v 438 0
v 439 0
v 440 0
v 441 1
v 442 0
v 443 2
v 444 1
v 445 3
v 446 0
v 447 2
v 448 2
v 449 0
v 450 1
v 451 3
v 452 0
v 453 1
v 454 0
v 455 0
v 456 1
v 457 0
v 458 0
v 459 0
v 460 0
v 461 0
v 462 0
v 463 0
v 464 0
v 465 1
v 466 0
v 467 0
v 468 2
v 469 0
v 470 0
v 471 2
v 472 1
v 473 0
v 474 0
v 475 0
v 476 1
v 477 1
v 478 1
v 479 5
v 480 1
v 481 0
v 482 1
v 483 2
v 484 0
v 485 10
v 486 0
v 487 0
v 488 1
v 489 2
v 490 0
v 491 1
v 492 7
v 493 1
v 494 0
v 495 1
v 496 0
v 497 6
v 498 7
v 499 0
v 500 1
v 501 2
v 502 8
v 503 1
v 504 1
v 505 0
v 506 0
v 507 2
v 508 4
v 509 0
v 510 9
v 511 3
v 512 2
v 513 0
v 514 0
v 515 0
v 516 2
v 517 0
v 518 1
v 519 1
v 520 0
v 521 2
v 522 0
v 523 0
v 524 1
v 525 0
v 526 6
v 527 1
v 528 5
v 529 0
v 530 1
v 531 0
v 532 1
v 533 1
v 534 0
v 535 1
v 536 0
v 537 0
v 538 1
v 539 0
v 540 0
v 541 3
v 542 6
v 543 0
v 544 1
v 545 7
v 546 1
v 547 0
v 548 3
v 549 4
v 550 0
v 551 1
v 552 0
v 553 3
v 554 7
v 555 8
v 556 1
v 557 1
v 558 5
v 559 0
v 560 9
v 561 0
